 $CONTRL SCFTYP=ROHF RUNTYP=CONICAL TDDFT=SPNFLP
         DFTTYP=BHHLYP ISPHER=1 PP=SBKJC MULT=4 MAXIT=200 ICHARG=0 $END
 $SYSTEM MWORDS=400 MEMDDI=200 $END
 $BASIS  GBASIS=SBKJC $END
 $TDDFT  NSTATE=5 TAMMD=.TRUE. MULT=2 $END
 $CONICL OPTTYP=BPUPD IXROOT(1)=1,2 $END
 $DATA
Au3 CONICAL from RANGE best CI
C1
 Au  79.0   0.1609447871   0.2396501871  -0.1520888986
 Au  79.0   3.0632837600   0.3536182957   0.1604109800
 Au  79.0   1.6114246671   2.6378235457  -0.1697972629
 $END
