 $CONTRL SCFTYP=UHF RUNTYP=CONICAL TDDFT=SPNFLP
         DFTTYP=BHHLYP ISPHER=1 PP=SBKJC MULT=3 MAXIT=200 ICHARG=0 $END
 $SYSTEM MWORDS=400 MEMDDI=200 $END
 $BASIS  GBASIS=SBKJC $END
 $SCF    DAMP=.TRUE. SHIFT=.TRUE. DIIS=.TRUE. SOSCF=.FALSE. DEM=.TRUE. $END
 $TDDFT  NSTATE=5 TAMMD=.TRUE. MULT=1 $END
 $STATPT METHOD=QA NSTEP=50 OPTTOL=1.0E-5 DXMAX=0.05 TRUPD=.TRUE. $END
 $CONICL OPTTYP=BPUPD IXROOT(1)=1,2 $END
 $DATA
CeO CONICAL SF-TDDFT (v16, somaki-start, RANGE-protocol UHF)
C1
 Ce    58.0    -0.289349519211444    -0.139893180231136    0.232944212102929
 O    8.0    1.354058045105869    -0.149496667494837    -1.127535517682468
 $END
