 $CONTRL SCFTYP=ROHF RUNTYP=CONICAL TDDFT=SPNFLP
         DFTTYP=BHHLYP ISPHER=1 PP=SBKJC MULT=4 MAXIT=200 ICHARG=0 $END
 $SYSTEM MWORDS=400 MEMDDI=200 $END
 $BASIS  GBASIS=SBKJC $END
 $TDDFT  NSTATE=5 TAMMD=.TRUE. MULT=2 $END
 $CONICL OPTTYP=BPUPD IXROOT(1)=1,2 $END
 $DATA
Ag3 CONICAL from RANGE best CI
C1
 Ag  47.0  -0.0533746773  -0.1720113212   0.0653236524
 Ag  47.0   2.6916134631  -0.0640716751  -0.1632833737
 Ag  47.0   1.1887373010   2.2316971755   0.1364773992
 $END
