 $CONTRL SCFTYP=ROHF RUNTYP=CONICAL TDDFT=SPNFLP
         DFTTYP=BHHLYP ISPHER=1 PP=SBKJC MULT=4 MAXIT=200 ICHARG=0 $END
 $SYSTEM MWORDS=200 MEMDDI=100 $END
 $BASIS  GBASIS=SBKJC $END
 $SCF    DAMP=.TRUE. SHIFT=.TRUE. DIIS=.TRUE. EXTRAP=.TRUE. $END
 $STATPT METHOD=QA NSTEP=50 OPTTOL=1.0E-5 $END
 $CONICL OPTTYP=BPUPD IXROOT(1)=1,2 $END
 $TDDFT  NSTATE=5 TAMMD=.TRUE. MULT=2 $END
 $DATA
AG3 CONICAL refinement v16
C1
 Ag    47.0     -0.14442756     -0.22918516      0.07720286
 Ag    47.0      2.61683997      0.22206794     -0.13926221
 Ag    47.0      0.85823188      2.37895885      0.12963461
 $END
