 $CONTRL SCFTYP=UHF RUNTYP=CONICAL TDDFT=SPNFLP
         DFTTYP=BHHLYP ISPHER=1 PP=SBKJC MULT=3 MAXIT=200 ICHARG=2 $END
 $SYSTEM MWORDS=400 MEMDDI=200 $END
 $BASIS  GBASIS=SBKJC $END
 $SCF    DAMP=.TRUE. SHIFT=.TRUE. DIIS=.TRUE. SOSCF=.FALSE. $END
 $TDDFT  NSTATE=5 TAMMD=.TRUE. MULT=1 $END
 $CONICL OPTTYP=BPUPD IXROOT(1)=1,2 $END
 $DATA
Ce2+(H2O) CONICAL from RANGE best CI candidate (somaki, gap = 4.8 meV)
C1
 Ce   58.0   0.16751653   0.20628396  -0.19050343
 O     8.0   1.03006388   2.89212007   0.37949162
 H     1.0   0.41046162   2.43846030  -0.19192492
 H     1.0   1.76107998   2.28140642   0.47370059
 $END
