 $CONTRL SCFTYP=ROHF RUNTYP=CONICAL TDDFT=SPNFLP
         DFTTYP=BHHLYP ISPHER=1 MULT=3 MAXIT=100 ICHARG=0 $END
 $SYSTEM MWORDS=200 MEMDDI=100 $END
 $BASIS  GBASIS=N31 NGAUSS=6 NDFUNC=1 NPFUNC=1 $END
 $TDDFT  NSTATE=5 TAMMD=.TRUE. MULT=1 $END
 $STATPT METHOD=QA NSTEP=50 OPTTOL=1.0E-5 $END
 $CONICL OPTTYP=BPUPD IXROOT(1)=1,2 $END
 $DATA
Ethylene SF-TDDFT/BHHLYP CONICAL refinement (Path B)
C1
 C    6.0    -0.235478391514990    0.092239679717090    1.017647423450818
 H    1.0    -1.144157133671105    -0.073710351369391    1.591442423450808
 H    1.0    0.673200350641107    0.258189710803555    1.591442423450830
 C    6.0    -0.449445632915518    -0.638765433116894    -1.045565050562334
 H    1.0    -0.346142733229094    -1.688608249357337    -1.309450903524783
 H    1.0    -0.280037258611692    0.078091701832206    -1.845498686608036
 $END
