 $CONTRL SCFTYP=ROHF RUNTYP=CONICAL TDDFT=SPNFLP
         DFTTYP=BHHLYP ISPHER=1 PP=SBKJC MULT=4 MAXIT=200 ICHARG=0 $END
 $SYSTEM MWORDS=400 MEMDDI=200 $END
 $BASIS  GBASIS=SBKJC $END
 $SCF    DAMP=.TRUE. SHIFT=.TRUE. DIIS=.TRUE. EXTRAP=.TRUE. $END
 $STATPT METHOD=QA NSTEP=50 OPTTOL=1.0E-5 $END
 $CONICL OPTTYP=BPUPD IXROOT(1)=1,2 $END
 $TDDFT  NSTATE=5 TAMMD=.TRUE. MULT=2 $END
 $DATA
Cu3-benzene CONICAL refinement v16
C1
 Cu    29.0      1.99999921     -2.00000000      5.00000000
 Cu    29.0     -2.00000000     -2.00000000      2.00000000
 Cu    29.0      2.00000000      2.00000000      2.22694503
 C      6.0     -0.19778732     -1.18196587      0.13234820
 C      6.0      0.95727553     -0.39706927      0.13234820
 C      6.0      0.85506285      0.99568513      0.13234820
 C      6.0     -0.40221268      1.60354293      0.13234820
 C      6.0     -1.55727553      0.81864633      0.13234820
 C      6.0     -1.45506285     -0.57410807      0.13234820
 H      1.0     -0.11830078     -2.26505307      0.13234820
 H      1.0      1.93499925     -0.86977555      0.13234820
 H      1.0      1.75330003      1.60606606      0.13234820
 H      1.0     -0.48169922      2.68663013      0.13234820
 H      1.0     -2.53499925      1.29135261      0.13234820
 H      1.0     -2.35330003     -1.18448899      0.13234820
 $END
