 $CONTRL SCFTYP=ROHF RUNTYP=CONICAL TDDFT=SPNFLP
         DFTTYP=BHHLYP ISPHER=1 MULT=3 MAXIT=100 ICHARG=0 $END
 $SYSTEM MWORDS=200 MEMDDI=100 $END
 $BASIS  GBASIS=N31 NGAUSS=6 NDFUNC=1 NPFUNC=1 $END
 $TDDFT  NSTATE=5 TAMMD=.TRUE. MULT=1 $END
 $STATPT METHOD=QA NSTEP=50 OPTTOL=1.0E-5 $END
 $CONICL OPTTYP=BPUPD IXROOT(1)=1,2 $END
 $DATA
Ethylene SF-TDDFT/BHHLYP CONICAL refinement (Path B, e_s0 start)
C1
 C    6.0    -0.553768701782849    -0.562849675505863    0.999442349620748
 H    1.0    -0.797976052831008    0.260838909437845    1.666058473050458
 H    1.0    -0.275686470740593    -1.500795066592904    1.474211648761047
 C    6.0    -0.130091279324226    0.205065177504881    -1.001037378916882
 H    1.0    0.805708888709744    0.537077347886843    -1.444346678971435
 H    1.0    -0.929111707304952    -0.046755356296364    -1.694312177041375
 $END
