 $CONTRL SCFTYP=ROHF RUNTYP=ENERGY TDDFT=SPNFLP
         DFTTYP=BHHLYP ISPHER=1 PP=READ MULT=4 MAXIT=200 ICHARG=0 $END
 $SYSTEM MWORDS=400 MEMDDI=200 $END
 $BASIS  BASNAM(1)=metal,metal,metal,
                   ligC,ligC,ligC,ligC,ligC,ligC,
                   ligH,ligH,ligH,ligH,ligH,ligH $END
 $SCF    DAMP=.TRUE. SHIFT=.TRUE. DIIS=.TRUE. SOSCF=.FALSE. $END
 $TDDFT  NSTATE=5 TAMMD=.TRUE. MULT=2 $END
 $metal  GBASIS=SBKJC $END
 $ligC   GBASIS=N31 NGAUSS=6 NDFUNC=1 $END
 $ligH   GBASIS=N31 NGAUSS=6 $END
 $ECP
Cu-ecp SBKJC
Cu-ecp SBKJC
Cu-ecp SBKJC
C-ecp none
C-ecp none
C-ecp none
C-ecp none
C-ecp none
C-ecp none
H-ecp none
H-ecp none
H-ecp none
H-ecp none
H-ecp none
H-ecp none
 $END
 $DATA
RANGE SF-TDDFT CI search Cu3/benzene
C1
{structure_info}
 $END
