 $CONTRL SCFTYP=UHF RUNTYP=ENERGY TDDFT=EXCITE
         DFTTYP=BHHLYP ISPHER=1 PP=SBKJC MULT=2 MAXIT=200 ICHARG=3 $END
 $SYSTEM MWORDS=400 MEMDDI=200 $END
 $BASIS  GBASIS=SBKJC $END
 $SCF    DAMP=.TRUE. SHIFT=.TRUE. DIIS=.TRUE. SOSCF=.FALSE. $END
 $TDDFT  NSTATE=5 TAMMD=.TRUE. MULT=2 $END
 $DATA
RANGE TDDFT CI search [Ce(H2O)]3+
C1
{structure_info}
 $END
