 $CONTRL SCFTYP=ROHF RUNTYP=ENERGY TDDFT=SPNFLP
         DFTTYP=BHHLYP ISPHER=1 PP=SBKJC MULT=4 MAXIT=200 ICHARG=3 $END
 $SYSTEM MWORDS=800 MEMDDI=400 $END
 $BASIS  GBASIS=SBKJC $END
 $TDDFT  NSTATE=5 TAMMD=.TRUE. MULT=2 $END
 $DATA
RANGE SF-TDDFT CI search [Ce(H2O)9]3+
C1
{structure_info}
 $END
