 $CONTRL SCFTYP=ROHF RUNTYP=OPTIMIZE TDDFT=SPNFLP
         DFTTYP=BHHLYP ISPHER=1 PP=SBKJC MULT=4 MAXIT=200 ICHARG=0 $END
 $SYSTEM MWORDS=400 MEMDDI=200 $END
 $BASIS  GBASIS=SBKJC $END
 $SCF    DAMP=.TRUE. SHIFT=.TRUE. DIIS=.TRUE. EXTRAP=.TRUE. $END
 $STATPT NSTEP=100 OPTTOL=1.0E-5 $END
 $TDDFT  NSTATE=5 TAMMD=.TRUE. MULT=2 IROOT=1 $END
 $DATA
Cu3/benzene basin #2 rep -- minimize E(S0) to test if true minimum
C1
 Cu   29.0      2.00000000      1.76212711      2.00000000
 Cu   29.0      1.06134728      1.17373970      5.00000000
 Cu   29.0     -0.33292628     -1.71046715      2.37549759
 C    6.0      1.11455106     -0.30000000     -0.30000000
 C    6.0      0.41630106     -1.44189348     -0.69844584
 C    6.0     -0.98019894     -1.44189348     -0.69844584
 C    6.0     -1.67844894     -0.30000000     -0.30000000
 C    6.0     -0.98019894      0.84189348      0.09844584
 C    6.0      0.41630106      0.84189348      0.09844584
 H    1.0      2.20055106     -0.30000000     -0.30000000
 H    1.0      0.95930106     -2.32988976     -1.00829823
 H    1.0     -1.52319894     -2.32988976     -1.00829823
 H    1.0     -2.76444894     -0.30000000     -0.30000000
 H    1.0     -1.52319894      1.72988976      0.40829823
 H    1.0      0.95930106      1.72988976      0.40829823
 $END
