 $CONTRL SCFTYP=ROHF RUNTYP=OPTIMIZE TDDFT=SPNFLP
         DFTTYP=BHHLYP ISPHER=1 PP=SBKJC MULT=4 MAXIT=200 ICHARG=0 $END
 $SYSTEM MWORDS=400 MEMDDI=200 $END
 $BASIS  GBASIS=SBKJC $END
 $SCF    DAMP=.TRUE. SHIFT=.TRUE. DIIS=.TRUE. EXTRAP=.TRUE. $END
 $STATPT NSTEP=100 OPTTOL=1.0E-5 $END
 $TDDFT  NSTATE=5 TAMMD=.TRUE. MULT=2 IROOT=1 $END
 $DATA
Cu3Pd basin #0 rep -- minimize E(S0) to test if true minimum
C1
 Cu   29.0      0.44211666      0.33613879      0.80125136
 Cu   29.0     -0.76948828      1.01322824     -1.49429453
 Cu   29.0     -0.00431068     -0.73393198     -0.83719997
 Pd   46.0      2.82854712     -0.68118204     -0.01304468
 $END
