 $CONTRL SCFTYP=ROHF RUNTYP=OPTIMIZE TDDFT=SPNFLP
         DFTTYP=BHHLYP ISPHER=1 PP=SBKJC MULT=4 MAXIT=200 ICHARG=0 $END
 $SYSTEM MWORDS=400 MEMDDI=200 $END
 $BASIS  GBASIS=SBKJC $END
 $SCF    DAMP=.TRUE. SHIFT=.TRUE. DIIS=.TRUE. EXTRAP=.TRUE. $END
 $STATPT NSTEP=100 OPTTOL=1.0E-5 $END
 $TDDFT  NSTATE=5 TAMMD=.TRUE. MULT=2 IROOT=1 $END
 $DATA
Cu3/benzene basin #3 rep -- minimize E(S0) to test if true minimum
C1
 Cu   29.0      1.64940604      1.09599454      2.15938860
 Cu   29.0      0.76173905      1.00527799      4.45775596
 Cu   29.0     -0.29595337     -0.70772978      2.30136650
 C    6.0      1.31695183     -0.39414502     -0.23614922
 C    6.0      0.52701793     -1.50206001      0.07811445
 C    6.0     -0.86484128     -1.40791499      0.01426367
 C    6.0     -1.46676657     -0.20585498     -0.36385078
 C    6.0     -0.67683266      0.90206001     -0.67811445
 C    6.0      0.71502654      0.80791499     -0.61426367
 H    1.0      2.39934288     -0.46735769     -0.18649513
 H    1.0      0.99511077     -2.43684522      0.37215627
 H    1.0     -1.47913948     -2.26948754      0.25865140
 H    1.0     -2.54915762     -0.13264231     -0.41350487
 H    1.0     -1.14492551      1.83684522     -0.97215627
 H    1.0      1.32932474      1.66948754     -0.85865140
 $END
