 $CONTRL SCFTYP=ROHF RUNTYP=OPTIMIZE TDDFT=SPNFLP
         DFTTYP=BHHLYP ISPHER=1 PP=SBKJC MULT=4 MAXIT=200 ICHARG=0 $END
 $SYSTEM MWORDS=400 MEMDDI=200 $END
 $BASIS  GBASIS=SBKJC $END
 $SCF    DAMP=.TRUE. SHIFT=.TRUE. DIIS=.TRUE. EXTRAP=.TRUE. $END
 $STATPT NSTEP=100 OPTTOL=1.0E-5 $END
 $TDDFT  NSTATE=5 TAMMD=.TRUE. MULT=2 IROOT=1 $END
 $DATA
Cu3Pd basin #1 rep -- minimize E(S0) to test if true minimum
C1
 Cu   29.0     -0.21982159     -1.12911433     -0.09074316
 Cu   29.0      0.54686476      0.60275725      1.40426386
 Cu   29.0     -0.65398204      0.68205332     -0.84840075
 Pd   46.0      2.13776201     -0.70808026     -0.01269789
 $END
