 $CONTRL SCFTYP=ROHF RUNTYP=OPTIMIZE TDDFT=SPNFLP
         DFTTYP=BHHLYP ISPHER=1 PP=SBKJC MULT=4 MAXIT=200 ICHARG=0 $END
 $SYSTEM MWORDS=400 MEMDDI=200 $END
 $BASIS  GBASIS=SBKJC $END
 $SCF    DAMP=.TRUE. SHIFT=.TRUE. DIIS=.TRUE. EXTRAP=.TRUE. $END
 $STATPT NSTEP=100 OPTTOL=1.0E-5 $END
 $TDDFT  NSTATE=5 TAMMD=.TRUE. MULT=2 IROOT=1 $END
 $DATA
Cu3/benzene basin #1 rep -- minimize E(S0) to test if true minimum
C1
 Cu   29.0      1.83916164      1.25054195      2.00000000
 Cu   29.0      0.91088651      1.17391284      4.57896741
 Cu   29.0     -0.31502656     -0.93044475      2.14036787
 C    6.0      1.36962990     -0.37394830     -0.25041718
 C    6.0      0.60113096     -1.51717554     -0.02090959
 C    6.0     -0.79252805     -1.44322724     -0.07049240
 C    6.0     -1.41768812     -0.22605170     -0.34958282
 C    6.0     -0.64918918      0.91717554     -0.57909041
 C    6.0      0.74446983      0.84322724     -0.52950760
 H    1.0      2.45342058     -0.43145482     -0.21185869
 H    1.0      1.08729239     -2.46371531      0.19612591
 H    1.0     -1.39015730     -2.33226049      0.10798460
 H    1.0     -2.50147881     -0.16854518     -0.38814131
 H    1.0     -1.13535062      1.86371531     -0.79612591
 H    1.0      1.34209908      1.73226049     -0.70798460
 $END
