 $CONTRL SCFTYP=ROHF RUNTYP=OPTIMIZE TDDFT=SPNFLP
         DFTTYP=BHHLYP ISPHER=1 PP=SBKJC MULT=4 MAXIT=200 ICHARG=0 $END
 $SYSTEM MWORDS=400 MEMDDI=200 $END
 $BASIS  GBASIS=SBKJC $END
 $SCF    DAMP=.TRUE. SHIFT=.TRUE. DIIS=.TRUE. EXTRAP=.TRUE. $END
 $STATPT NSTEP=100 OPTTOL=1.0E-5 $END
 $TDDFT  NSTATE=5 TAMMD=.TRUE. MULT=2 IROOT=1 $END
 $DATA
Cu3/benzene basin #0 rep -- minimize E(S0) to test if true minimum
C1
 Cu   29.0      2.00000000      1.34309390      2.00000000
 Cu   29.0      0.93842436      1.17388115      4.65802098
 Cu   29.0     -0.31797242     -1.07320716      2.18427728
 C    6.0      0.93800542      0.31879382     -1.05714766
 C    6.0      1.27529769     -1.02997514     -0.92565970
 C    6.0      0.27131865     -1.99004485     -0.78246583
 C    6.0     -1.06995266     -1.60134560     -0.77075993
 C    6.0     -1.40724493     -0.25257664     -0.90224789
 C    6.0     -0.40326589      0.70749307     -1.04544175
 H    1.0      1.71875819      1.06540012     -1.16850358
 H    1.0      2.31834363     -1.33224521     -0.93476325
 H    1.0      0.53361182     -3.03892122     -0.68021347
 H    1.0     -1.85070543     -2.34795190     -0.65940401
 H    1.0     -2.45029087      0.04969343     -0.89314433
 H    1.0     -0.66555905      1.75636944     -1.14769412
 $END
