 $CONTRL SCFTYP=ROHF RUNTYP=SADPOINT TDDFT=SPNFLP
         DFTTYP=BHHLYP ISPHER=1 PP=SBKJC MULT=4 MAXIT=200 ICHARG=0 $END
 $SYSTEM MWORDS=400 MEMDDI=200 $END
 $BASIS  GBASIS=SBKJC $END
 $SCF    DAMP=.TRUE. SHIFT=.TRUE. DIIS=.TRUE. EXTRAP=.TRUE. $END
 $STATPT NSTEP=200 OPTTOL=1.0E-5 HESS=GUESS HSSEND=.TRUE. $END
 $TDDFT  NSTATE=5 TAMMD=.TRUE. MULT=2 IROOT=1 $END
 $DATA
SADPNT TS search for cu3_benzene, guess from image_01.inp.log
C1
 Cu   29.0      1.82378790      1.22982078      2.01927743
 Cu   29.0      0.90584774      1.14100043      4.56454847
 Cu   29.0     -0.29918856     -0.90956378      2.15749671
 C    6.0      1.37010625     -0.37024132     -0.25371750
 C    6.0      0.60253898     -1.51218176     -0.01592166
 C    6.0     -0.79121517     -1.43921106     -0.06403643
 C    6.0     -1.41740206     -0.22429991     -0.34994706
 C    6.0     -0.64983479      0.91764053     -0.58774289
 C    6.0      0.74391937      0.84466982     -0.53962812
 H    1.0      2.45397093     -0.42698761     -0.21630065
 H    1.0      1.08949892     -2.45696062      0.20641758
 H    1.0     -1.38811991     -2.32724363      0.12088595
 H    1.0     -2.50126674     -0.16755362     -0.38736391
 H    1.0     -1.13679473      1.86241939     -0.81008213
 H    1.0      1.34082411      1.73270239     -0.72455050
 $END
