 $CONTRL SCFTYP=ROHF RUNTYP=SADPOINT TDDFT=SPNFLP
         DFTTYP=BHHLYP ISPHER=1 PP=SBKJC MULT=4 MAXIT=200 ICHARG=0 $END
 $SYSTEM MWORDS=400 MEMDDI=200 $END
 $BASIS  GBASIS=SBKJC $END
 $SCF    DAMP=.TRUE. SHIFT=.TRUE. DIIS=.TRUE. EXTRAP=.TRUE. $END
 $STATPT NSTEP=200 OPTTOL=1.0E-5 HESS=GUESS HSSEND=.TRUE. $END
 $TDDFT  NSTATE=5 TAMMD=.TRUE. MULT=2 IROOT=1 $END
 $DATA
SADPNT TS search for cu3pd, guess from image_04.inp.log
C1
 Cu   29.0      0.41818298      0.26679522      0.79955904
 Cu   29.0     -0.49067002      1.01623961     -1.47482617
 Cu   29.0     -0.15376452     -0.84029786     -0.75131278
 Pd   46.0      2.72311637     -0.50848397     -0.11670791
 $END
