 $CONTRL SCFTYP=ROHF RUNTYP=ENERGY TDDFT=SPNFLP
         DFTTYP=BHHLYP ISPHER=1 PP=SBKJC MULT=4 MAXIT=100 ICHARG=0 $END
 $SYSTEM MWORDS=200 MEMDDI=100 $END
 $BASIS  GBASIS=SBKJC $END
 $TDDFT  NSTATE=5 TAMMD=.TRUE. MULT=2 $END
 $DATA
Au3 D3h equilateral single-point at MECI distance 2.734 A
C1
 Au   79.0   1.5785   0.0000   0.0000
 Au   79.0  -0.7892   1.3670   0.0000
 Au   79.0  -0.7892  -1.3670   0.0000
 $END
