 $CONTRL SCFTYP=ROHF RUNTYP=ENERGY TDDFT=SPNFLP
         DFTTYP=BHHLYP ISPHER=1 PP=SBKJC MULT=4 MAXIT=100 ICHARG=0 $END
 $SYSTEM MWORDS=200 MEMDDI=100 $END
 $BASIS  GBASIS=SBKJC $END
 $TDDFT  NSTATE=5 TAMMD=.TRUE. MULT=2 $END
 $DATA
Ag3 D3h equilateral single-point at MECI distance 2.741 A
C1
 Ag   47.0   1.5825   0.0000   0.0000
 Ag   47.0  -0.7913   1.3705   0.0000
 Ag   47.0  -0.7913  -1.3705   0.0000
 $END
