 $CONTRL SCFTYP=ROHF RUNTYP=ENERGY TDDFT=SPNFLP
         DFTTYP=BHHLYP ISPHER=1 PP=SBKJC MULT=4 MAXIT=100 ICHARG=0 $END
 $SYSTEM MWORDS=200 MEMDDI=100 $END
 $BASIS  GBASIS=SBKJC $END
 $TDDFT  NSTATE=5 TAMMD=.TRUE. MULT=2 $END
 $DATA
Cu3 D3h equilateral single-point at MECI distance 2.534 A
C1
 Cu   29.0   1.4631   0.0000   0.0000
 Cu   29.0  -0.7316   1.2671   0.0000
 Cu   29.0  -0.7316  -1.2671   0.0000
 $END
