 $CONTRL SCFTYP=ROHF RUNTYP=ENERGY
         DFTTYP=BLYP ISPHER=1 PP=SBKJC MULT=3 MAXIT=200 ICHARG=0 $END
 $SYSTEM MWORDS=400 MEMDDI=200 $END
 $BASIS  GBASIS=SBKJC $END
 $DATA
CeO triplet BLYP SCF only
C1
 Ce   58.0   0.000000   0.000000   0.000000
 O     8.0   1.820000   0.000000   0.000000
 $END
