 $CONTRL SCFTYP=ROHF RUNTYP=ENERGY TDDFT=SPNFLP
         DFTTYP=BHHLYP ISPHER=1 PP=SBKJC MULT=3 MAXIT=200 ICHARG=2 $END
 $SYSTEM MWORDS=400 MEMDDI=200 $END
 $BASIS  GBASIS=SBKJC $END
 $SCF    DAMP=.TRUE. SHIFT=.TRUE. DIIS=.TRUE. SOSCF=.FALSE. $END
 $TDDFT  NSTATE=5 TAMMD=.TRUE. MULT=1 $END
 $DATA
ce2 rohf Ce-O=3.0A MULT=3->1
C1
 Ce   58.0   0.000000   0.000000   0.000000
 O     8.0   3.0000000   0.000000   0.000000
 H     1.0   3.756950   0.585882   0.000000
 H     1.0   3.756950  -0.585882   0.000000
 $END
