 $CONTRL SCFTYP=ROHF RUNTYP=ENERGY TDDFT=SPNFLP
         DFTTYP=BHHLYP ISPHER=1 PP=SBKJC MULT=3 MAXIT=200 ICHARG=0 $END
 $SYSTEM MWORDS=400 MEMDDI=200 $END
 $BASIS  GBASIS=SBKJC $END
 $SCF    DAMP=.TRUE. SHIFT=.TRUE. DIIS=.TRUE. SOSCF=.FALSE. RSTRCT=.TRUE. $END
 $TDDFT  NSTATE=5 TAMMD=.TRUE. MULT=1 $END
 $DATA
CeO ROHF triplet SF at 2.0 A with convergence aids
C1
 Ce   58.0   0.000000   0.000000   0.000000
 O     8.0   2.000000   0.000000   0.000000
 $END
