 $CONTRL SCFTYP=ROHF RUNTYP=ENERGY
         DFTTYP=PBE96 ISPHER=1 PP=SBKJC MULT=2 MAXIT=200 ICHARG=3 $END
 $SYSTEM MWORDS=400 MEMDDI=200 $END
 $BASIS  GBASIS=SBKJC $END
 $DATA
Ce3+(H2O) doublet PBE SCF only
C1
 Ce   58.0   0.000000   0.000000   0.000000
 O     8.0   2.500000   0.000000   0.000000
 H     1.0   3.256950   0.585882   0.000000
 H     1.0   3.256950  -0.585882   0.000000
 $END
