 $CONTRL SCFTYP=ROHF RUNTYP=ENERGY TDDFT=SPNFLP
         DFTTYP=BHHLYP ISPHER=1 PP=SBKJC MULT=4 MAXIT=100 ICHARG=0 $END
 $SYSTEM MWORDS=200 MEMDDI=100 $END
 $BASIS  GBASIS=SBKJC $END
 $TDDFT  NSTATE=5 TAMMD=.TRUE. MULT=2 $END
 $DATA
Cu3 equilateral test
C1
 Cu   29.0   0.000000   0.000000   0.000000
 Cu   29.0   2.300000   0.000000   0.000000
 Cu   29.0   1.150000   1.991858   0.000000
 $END
