 $CONTRL SCFTYP=ROHF RUNTYP=ENERGY TDDFT=SPNFLP
         DFTTYP=BHHLYP ISPHER=1 PP=SBKJC MULT=5 MAXIT=200 ICHARG=0 $END
 $SYSTEM MWORDS=400 MEMDDI=200 $END
 $BASIS  GBASIS=SBKJC $END
 $TDDFT  NSTATE=5 TAMMD=.TRUE. MULT=3 $END
 $DATA
CeO test - quintet ref to triplet target
C1
 Ce   58.0   0.000000   0.000000   0.000000
 O     8.0   1.820000   0.000000   0.000000
 $END
