 $CONTRL SCFTYP=ROHF RUNTYP=ENERGY TDDFT=SPNFLP
         DFTTYP=BHHLYP ISPHER=1 PP=SBKJC MULT=4 MAXIT=100 ICHARG=0 $END
 $SYSTEM MWORDS=200 MEMDDI=100 $END
 $BASIS  GBASIS=SBKJC $END
 $TDDFT  NSTATE=5 TAMMD=.TRUE. MULT=2 $END
 $DATA
Ag3 equilateral test
C1
 Ag   47.0   0.000000   0.000000   0.000000
 Ag   47.0   2.700000   0.000000   0.000000
 Ag   47.0   1.350000   2.338269   0.000000
 $END
