 $CONTRL SCFTYP=ROHF RUNTYP=CONICAL TDDFT=SPNFLP
         DFTTYP=BHHLYP ISPHER=1 PP=SBKJC MULT=4 MAXIT=200 ICHARG=0 $END
 $SYSTEM MWORDS=400 MEMDDI=200 $END
 $BASIS  GBASIS=SBKJC $END
 $TDDFT  NSTATE=5 TAMMD=.TRUE. MULT=2 $END
 $CONIC  ESSION=BPUPD NSTATE=2 IXROOT(1)=1,2 $END
 $DATA
Cu3 CONICAL test from best CI candidate
C1
 Cu   29.0  -0.1158835678  -0.0893318208  -0.0416646310
 Cu   29.0   2.3989718002   0.1762364210  -0.1365414076
 Cu   29.0   0.8889906033   2.2202868035   0.0744875892
 $END
