 $CONTRL SCFTYP=UHF RUNTYP=ENERGY TDDFT=SPNFLP
         DFTTYP=BHHLYP ISPHER=1 PP=SBKJC MULT=4 MAXIT=200 ICHARG=3 $END
 $SYSTEM MWORDS=400 MEMDDI=200 $END
 $BASIS  GBASIS=SBKJC $END
 $SCF    DAMP=.TRUE. SHIFT=.TRUE. DIIS=.TRUE. SOSCF=.FALSE. $END
 $TDDFT  NSTATE=5 TAMMD=.TRUE. MULT=2 $END
 $DATA
ce3 uhf Ce-O=2.5A MULT=4->2
C1
 Ce   58.0   0.000000   0.000000   0.000000
 O     8.0   2.5000000   0.000000   0.000000
 H     1.0   3.256950   0.585882   0.000000
 H     1.0   3.256950  -0.585882   0.000000
 $END
