 $CONTRL SCFTYP=UHF RUNTYP=ENERGY TDDFT=SPNFLP
         DFTTYP=BHHLYP ISPHER=1 PP=SBKJC MULT=3 MAXIT=200 ICHARG=0 $END
 $SYSTEM MWORDS=400 MEMDDI=200 $END
 $BASIS  GBASIS=SBKJC $END
 $SCF    DAMP=.TRUE. SHIFT=.TRUE. DIIS=.TRUE. EXTRAP=.TRUE. $END
 $TDDFT  NSTATE=5 TAMMD=.TRUE. MULT=1 $END
 $DATA
CeO vertical excitation at S0 minimum (v16, UHF)
C1
 Ce    58.0     -0.35095445     -0.10742507      0.00079246
 O      8.0      1.52663542     -0.96939864      0.01689933
 $END
