 $CONTRL SCFTYP=ROHF RUNTYP=ENERGY TDDFT=SPNFLP
         DFTTYP=BHHLYP ISPHER=1 PP=SBKJC MULT=4 MAXIT=200 ICHARG=0 $END
 $SYSTEM MWORDS=200 MEMDDI=100 $END
 $BASIS  GBASIS=SBKJC $END
 $SCF    DAMP=.TRUE. SHIFT=.TRUE. DIIS=.TRUE. EXTRAP=.TRUE. $END
 $TDDFT  NSTATE=5 TAMMD=.TRUE. MULT=2 $END
 $DATA
AU3 vertical excitation at S0 minimum (v16)
C1
 Au    79.0      0.25710412      0.23812772     -0.14562494
 Au    79.0      2.79538308     -0.57796624      0.10952692
 Au    79.0      1.86692729      2.28788608      0.16592960
 $END
