 $CONTRL SCFTYP=ROHF RUNTYP=ENERGY TDDFT=SPNFLP
         DFTTYP=BHHLYP ISPHER=1 PP=SBKJC MULT=4 MAXIT=200 ICHARG=0 $END
 $SYSTEM MWORDS=400 MEMDDI=200 $END
 $BASIS  GBASIS=SBKJC $END
 $SCF    DAMP=.TRUE. SHIFT=.TRUE. DIIS=.TRUE. SOSCF=.FALSE. $END
 $TDDFT  NSTATE=5 TAMMD=.TRUE. MULT=2 $END
 $DATA
Cu3/benzene vertical excitation at S0 minimum (v16, ROHF)
C1
 Cu   29.0    -1.56482666     1.74700192     2.58206514
 Cu   29.0    -0.52135484    -1.77743130     4.56842511
 Cu   29.0    -1.73095517     0.44585467     4.67730875
 C    6.0     1.46779228     0.09754050    -0.30000000
 C    6.0     0.76954228    -1.05665944     0.06125102
 C    6.0    -0.62695772    -1.05665944     0.06125102
 C    6.0    -1.32520772     0.09754050    -0.30000000
 C    6.0    -0.62695772     1.25174044    -0.66125102
 C    6.0     0.76954228     1.25174044    -0.66125102
 H    1.0     2.55379228     0.09754050    -0.30000000
 H    1.0     1.31254228    -1.95422587     0.34217876
 H    1.0    -1.16995772    -1.95422587     0.34217876
 H    1.0    -2.41120772     0.09754050    -0.30000000
 H    1.0    -1.16995772     2.14930687    -0.94217876
 H    1.0     1.31254228     2.14930687    -0.94217876
 $END
