 $CONTRL SCFTYP=ROHF RUNTYP=ENERGY TDDFT=SPNFLP
         DFTTYP=BHHLYP ISPHER=1 PP=SBKJC MULT=4 MAXIT=200 ICHARG=0 $END
 $SYSTEM MWORDS=200 MEMDDI=100 $END
 $BASIS  GBASIS=SBKJC $END
 $SCF    DAMP=.TRUE. SHIFT=.TRUE. DIIS=.TRUE. EXTRAP=.TRUE. $END
 $TDDFT  NSTATE=5 TAMMD=.TRUE. MULT=2 $END
 $DATA
CU3 vertical excitation at S0 minimum (v16)
C1
 Cu    29.0     -0.11915592     -0.14844619      0.01880598
 Cu    29.0      2.19711395      0.39261832      0.20000000
 Cu    29.0     -0.08364412      2.12183207     -0.00624594
 $END
