 $CONTRL SCFTYP=ROHF RUNTYP=ENERGY TDDFT=SPNFLP
         DFTTYP=BHHLYP ISPHER=1 PP=SBKJC MULT=4 MAXIT=200 ICHARG=0 $END
 $SYSTEM MWORDS=200 MEMDDI=100 $END
 $BASIS  GBASIS=SBKJC $END
 $SCF    DAMP=.TRUE. SHIFT=.TRUE. DIIS=.TRUE. EXTRAP=.TRUE. $END
 $TDDFT  NSTATE=5 TAMMD=.TRUE. MULT=2 $END
 $DATA
AG3 vertical excitation at S0 minimum (v16)
C1
 Ag    47.0     -0.15276580     -0.18032493      0.07327261
 Ag    47.0      2.51821475      0.05369942     -0.18578932
 Ag    47.0      1.37151604      2.50684308      0.17596612
 $END
