 $CONTRL SCFTYP=UHF RUNTYP=ENERGY TDDFT=SPNFLP
         DFTTYP=BHHLYP ISPHER=1 PP=SBKJC MULT=3 MAXIT=200 ICHARG=0 $END
 $SYSTEM MWORDS=400 MEMDDI=200 $END
 $BASIS  GBASIS=SBKJC $END
 $SCF    DAMP=.TRUE. SHIFT=.TRUE. DIIS=.TRUE. SOSCF=.FALSE. $END
 $TDDFT  NSTATE=5 TAMMD=.TRUE. MULT=1 $END
 $DATA
CeO vertical SF-TDDFT (v16, RANGE-protocol UHF, no SOSCF)
C1
 Ce    58.0    -0.300000000000000    0.173444418013539    0.132888763442065
 O    8.0    1.314673320898508    -0.219261489788261    -1.000000000000000
 $END
