 $CONTRL SCFTYP=UHF RUNTYP=ENERGY TDDFT=SPNFLP
         DFTTYP=BHHLYP ISPHER=1 PP=SBKJC MULT=3 MAXIT=200 ICHARG=2 $END
 $SYSTEM MWORDS=400 MEMDDI=200 $END
 $BASIS  GBASIS=SBKJC $END
 $SCF    DAMP=.TRUE. SHIFT=.TRUE. DIIS=.TRUE. EXTRAP=.TRUE. $END
 $TDDFT  NSTATE=5 TAMMD=.TRUE. MULT=1 $END
 $DATA
Ce2+(H2O) vertical excitation at S0 minimum (v16, UHF)
C1
 Ce   58.0     0.03205766     0.03445578    -0.05251143
 O    8.0     2.35039321    -1.83078646    -0.65696578
 H    1.0     3.17753306    -1.99320840    -1.11049616
 H    1.0     1.84700902    -2.63553433    -0.78031987
 $END
