 $CONTRL SCFTYP=ROHF RUNTYP=CONICAL TDDFT=SPNFLP
         DFTTYP=BHHLYP ISPHER=1 PP=SBKJC MULT=4 MAXIT=100 ICHARG=0 $END
 $SYSTEM MWORDS=200 MEMDDI=100 $END
 $BASIS  GBASIS=SBKJC $END
 $TDDFT  NSTATE=5 TAMMD=.TRUE. MULT=2 $END
 $CONICL OPTTYP=BPUPD IXROOT(1)=1,2 $END
 $DATA
CONICAL from RANGE CI candidate ci_somaki
C1
 Ag    47.0    0.13321578    -0.18839999    -0.04697593
 Ag    47.0    3.00076844    0.23521156    0.14431475
 Ag    47.0    1.18218144    2.46604325    -0.12304091
 $END
