 $CONTRL SCFTYP=ROHF RUNTYP=ENERGY TDDFT=SPNFLP
         DFTTYP=BHHLYP ISPHER=1 PP=SBKJC MULT=4 MAXIT=200 ICHARG=0 $END
 $SYSTEM MWORDS=400 MEMDDI=200 $END
 $BASIS  GBASIS=SBKJC $END
 $SCF    DAMP=.TRUE. SHIFT=.TRUE. DIIS=.TRUE. EXTRAP=.TRUE. $END
 $TDDFT  NSTATE=5 TAMMD=.TRUE. MULT=2 $END
 $DATA
NEB image 7/7 for cu3_benzene basin 1->3 (alpha=0.875)
C1
 Cu   29.0     1.73154543     1.10549379     2.13494202
 Cu   29.0     0.87561514     0.94352600     4.47803483
 Cu   29.0    -0.20416054    -0.78427798     2.26026978
 C    6.0     1.37296438    -0.34799946    -0.27351942
 C    6.0     0.61098713    -1.48221909     0.01400589
 C    6.0    -0.78333791    -1.41511395    -0.02530063
 C    6.0    -1.41568568    -0.21378917    -0.35213247
 C    6.0    -0.65370842     0.92043047    -0.63965778
 C    6.0     0.74061661     0.85332532    -0.60035126
 H    1.0     2.45727301    -0.40018434    -0.24295239
 H    1.0     1.10273810    -2.41643247     0.26816758
 H    1.0    -1.37589556    -2.29714245     0.19829402
 H    1.0    -2.49999431    -0.16160428    -0.38269951
 H    1.0    -1.14545940     1.85464384    -0.89381947
 H    1.0     1.33317426     1.73535382    -0.82394591
 $END
