 $CONTRL SCFTYP=ROHF RUNTYP=ENERGY TDDFT=SPNFLP
         DFTTYP=BHHLYP ISPHER=1 PP=SBKJC MULT=4 MAXIT=200 ICHARG=0 $END
 $SYSTEM MWORDS=400 MEMDDI=200 $END
 $BASIS  GBASIS=SBKJC $END
 $SCF    DAMP=.TRUE. SHIFT=.TRUE. DIIS=.TRUE. EXTRAP=.TRUE. $END
 $TDDFT  NSTATE=5 TAMMD=.TRUE. MULT=2 $END
 $DATA
NEB image 3/7 for cu3_benzene basin 1->3 (alpha=0.375)
C1
 Cu   29.0     1.79304041     1.18837845     2.05783229
 Cu   29.0     0.89577021     1.07517562     4.53571059
 Cu   29.0    -0.26751255    -0.86780185     2.19175440
 C    6.0     1.37105896    -0.36282737    -0.26031814
 C    6.0     0.60535503    -1.50219421    -0.00594581
 C    6.0    -0.78858942    -1.43117869    -0.05112450
 C    6.0    -1.41682993    -0.22079633    -0.35067553
 C    6.0    -0.65112600     0.91857051    -0.60504785
 C    6.0     0.74281845     0.84755499    -0.55986917
 H    1.0     2.45507162    -0.41805319    -0.22518456
 H    1.0     1.09391198    -2.44345124     0.22700091
 H    1.0    -1.38404513    -2.31720990     0.14668864
 H    1.0    -2.50084259    -0.16557051    -0.38580911
 H    1.0    -1.13968295     1.85982754    -0.83799458
 H    1.0     1.33827416     1.73358620    -0.75768230
 $END
