 $CONTRL SCFTYP=ROHF RUNTYP=ENERGY TDDFT=SPNFLP
         DFTTYP=BHHLYP ISPHER=1 PP=SBKJC MULT=4 MAXIT=200 ICHARG=0 $END
 $SYSTEM MWORDS=400 MEMDDI=200 $END
 $BASIS  GBASIS=SBKJC $END
 $SCF    DAMP=.TRUE. SHIFT=.TRUE. DIIS=.TRUE. EXTRAP=.TRUE. $END
 $TDDFT  NSTATE=5 TAMMD=.TRUE. MULT=2 $END
 $DATA
NEB image 2/7 for cu3_benzene basin 1->3 (alpha=0.250)
C1
 Cu   29.0     1.80841415     1.20909962     2.03855486
 Cu   29.0     0.90080898     1.10808803     4.55012953
 Cu   29.0    -0.28335056    -0.88868282     2.17462556
 C    6.0     1.37058261    -0.36653435    -0.25701782
 C    6.0     0.60394701    -1.50718798    -0.01093374
 C    6.0    -0.78990230    -1.43519487    -0.05758047
 C    6.0    -1.41711599    -0.22254812    -0.35031129
 C    6.0    -0.65048039     0.91810552    -0.59639537
 C    6.0     0.74336891     0.84611241    -0.54974865
 H    1.0     2.45452127    -0.42252040    -0.22074260
 H    1.0     1.09170545    -2.45020593     0.21670924
 H    1.0    -1.38608252    -2.32222676     0.13378729
 H    1.0    -2.50105467    -0.16656207    -0.38658651
 H    1.0    -1.13823884     1.86112346    -0.82403836
 H    1.0     1.33954913     1.73314430    -0.74111640
 $END
