 $CONTRL SCFTYP=ROHF RUNTYP=ENERGY TDDFT=SPNFLP
         DFTTYP=BHHLYP ISPHER=1 PP=SBKJC MULT=4 MAXIT=200 ICHARG=0 $END
 $SYSTEM MWORDS=400 MEMDDI=200 $END
 $BASIS  GBASIS=SBKJC $END
 $SCF    DAMP=.TRUE. SHIFT=.TRUE. DIIS=.TRUE. EXTRAP=.TRUE. $END
 $TDDFT  NSTATE=5 TAMMD=.TRUE. MULT=2 $END
 $DATA
NEB image 6/7 for cu3_benzene basin 1->3 (alpha=0.750)
C1
 Cu   29.0     1.74691917     1.12621495     2.11566459
 Cu   29.0     0.88065391     0.97643840     4.49245377
 Cu   29.0    -0.21999855    -0.80515895     2.24314093
 C    6.0     1.37248803    -0.35170644    -0.27021910
 C    6.0     0.60957911    -1.48721287     0.00901796
 C    6.0    -0.78465079    -1.41913013    -0.03175660
 C    6.0    -1.41597174    -0.21554096    -0.35176823
 C    6.0    -0.65306281     0.91996548    -0.63100530
 C    6.0     0.74116707     0.85188274    -0.59023074
 H    1.0     2.45672266    -0.40465156    -0.23851043
 H    1.0     1.10053157    -2.42318716     0.25787591
 H    1.0    -1.37793295    -2.30215931     0.18539267
 H    1.0    -2.50020638    -0.16259584    -0.38347691
 H    1.0    -1.14401528     1.85593977    -0.87986325
 H    1.0     1.33444924     1.73491192    -0.80738001
 $END
