 $CONTRL SCFTYP=ROHF RUNTYP=ENERGY TDDFT=SPNFLP
         DFTTYP=BHHLYP ISPHER=1 PP=SBKJC MULT=4 MAXIT=200 ICHARG=0 $END
 $SYSTEM MWORDS=400 MEMDDI=200 $END
 $BASIS  GBASIS=SBKJC $END
 $SCF    DAMP=.TRUE. SHIFT=.TRUE. DIIS=.TRUE. EXTRAP=.TRUE. $END
 $TDDFT  NSTATE=5 TAMMD=.TRUE. MULT=2 $END
 $DATA
NEB image 4/7 for cu3_benzene basin 1->3 (alpha=0.500)
C1
 Cu   29.0     1.77766666     1.16765729     2.07710973
 Cu   29.0     0.89073144     1.04226322     4.52129165
 Cu   29.0    -0.25167455    -0.84692088     2.20888325
 C    6.0     1.37153532    -0.35912039    -0.26361846
 C    6.0     0.60676306    -1.49720043    -0.00095789
 C    6.0    -0.78727654    -1.42716250    -0.04466853
 C    6.0    -1.41654387    -0.21904454    -0.35103976
 C    6.0    -0.65177160     0.91903550    -0.61370033
 C    6.0     0.74226799     0.84899757    -0.56998969
 H    1.0     2.45562197    -0.41358598    -0.22962652
 H    1.0     1.09611851    -2.43669654     0.23729258
 H    1.0    -1.38200773    -2.31219304     0.15958998
 H    1.0    -2.50063052    -0.16457895    -0.38503171
 H    1.0    -1.14112706     1.85853162    -0.85195080
 H    1.0     1.33699918     1.73402811    -0.77424821
 $END
