 $CONTRL SCFTYP=ROHF RUNTYP=ENERGY TDDFT=SPNFLP
         DFTTYP=BHHLYP ISPHER=1 PP=SBKJC MULT=4 MAXIT=200 ICHARG=0 $END
 $SYSTEM MWORDS=400 MEMDDI=200 $END
 $BASIS  GBASIS=SBKJC $END
 $SCF    DAMP=.TRUE. SHIFT=.TRUE. DIIS=.TRUE. EXTRAP=.TRUE. $END
 $TDDFT  NSTATE=5 TAMMD=.TRUE. MULT=2 $END
 $DATA
NEB image 5/7 for cu3_benzene basin 1->3 (alpha=0.625)
C1
 Cu   29.0     1.76229292     1.14693612     2.09638716
 Cu   29.0     0.88569268     1.00935081     4.50687271
 Cu   29.0    -0.23583655    -0.82603992     2.22601209
 C    6.0     1.37201167    -0.35541341    -0.26691878
 C    6.0     0.60817108    -1.49220665     0.00403004
 C    6.0    -0.78596366    -1.42314632    -0.03821257
 C    6.0    -1.41625781    -0.21729275    -0.35140400
 C    6.0    -0.65241721     0.91950049    -0.62235282
 C    6.0     0.74171753     0.85044016    -0.58011021
 H    1.0     2.45617232    -0.40911877    -0.23406847
 H    1.0     1.09832504    -2.42994185     0.24758425
 H    1.0    -1.37997034    -2.30717617     0.17249133
 H    1.0    -2.50041845    -0.16358740    -0.38425431
 H    1.0    -1.14257117     1.85723569    -0.86590703
 H    1.0     1.33572421     1.73447001    -0.79081411
 $END
