%chk=checkpoint.chk
%NProcShared=12             ! number of processors
%MEM=12GB                   ! Memory 
#cam-b3lyp/gen stable=opt   ! optimization setting

Calculation                 ! Calculation_title_line

0 1
{structure_info}

O 0
cc-pVdZ
****
H 0
aug-cc-pVdZ
****
