 $CONTRL SCFTYP=ROHF RUNTYP=ENERGY TDDFT=SPNFLP
         DFTTYP=BHHLYP ISPHER=1 PP=SBKJC MULT=4 MAXIT=200 ICHARG=0 $END
 $SYSTEM MWORDS=400 MEMDDI=200 $END
 $BASIS  GBASIS=SBKJC $END
 $SCF    DAMP=.TRUE. SHIFT=.TRUE. DIIS=.TRUE. EXTRAP=.TRUE. $END
 $TDDFT  NSTATE=5 TAMMD=.TRUE. MULT=2 $END
 $DATA
NEB image 8/15 for cu3pd basin 0->1 (alpha=0.500)
C1
 Cu   29.0     0.39424931     0.19745165     0.79786671
 Cu   29.0    -0.21185175     1.01925098    -1.45535780
 Cu   29.0    -0.30321836    -0.94666374    -0.66542559
 Pd   46.0     2.61768562    -0.33578589    -0.22037113
 $END
