 $CONTRL SCFTYP=ROHF RUNTYP=ENERGY TDDFT=SPNFLP
         DFTTYP=BHHLYP ISPHER=1 PP=SBKJC MULT=4 MAXIT=200 ICHARG=0 $END
 $SYSTEM MWORDS=400 MEMDDI=200 $END
 $BASIS  GBASIS=SBKJC $END
 $SCF    DAMP=.TRUE. SHIFT=.TRUE. DIIS=.TRUE. EXTRAP=.TRUE. $END
 $TDDFT  NSTATE=5 TAMMD=.TRUE. MULT=2 $END
 $DATA
NEB image 9/15 for cu3pd basin 0->1 (alpha=0.562)
C1
 Cu   29.0     0.38826589     0.18011576     0.79744363
 Cu   29.0    -0.14214718     1.02000383    -1.45049071
 Cu   29.0    -0.34058182    -0.97325521    -0.64395380
 Pd   46.0     2.59132794    -0.29261137    -0.24628694
 $END
