 $CONTRL SCFTYP=ROHF RUNTYP=ENERGY TDDFT=SPNFLP
         DFTTYP=BHHLYP ISPHER=1 PP=SBKJC MULT=4 MAXIT=200 ICHARG=0 $END
 $SYSTEM MWORDS=400 MEMDDI=200 $END
 $BASIS  GBASIS=SBKJC $END
 $SCF    DAMP=.TRUE. SHIFT=.TRUE. DIIS=.TRUE. EXTRAP=.TRUE. $END
 $TDDFT  NSTATE=5 TAMMD=.TRUE. MULT=2 $END
 $DATA
NEB image 4/15 for cu3pd basin 0->1 (alpha=0.250)
C1
 Cu   29.0     0.41818298     0.26679522     0.79955904
 Cu   29.0    -0.49067002     1.01623961    -1.47482617
 Cu   29.0    -0.15376452    -0.84029786    -0.75131278
 Pd   46.0     2.72311637    -0.50848397    -0.11670791
 $END
