 $CONTRL SCFTYP=ROHF RUNTYP=ENERGY TDDFT=SPNFLP
         DFTTYP=BHHLYP ISPHER=1 PP=SBKJC MULT=4 MAXIT=200 ICHARG=0 $END
 $SYSTEM MWORDS=400 MEMDDI=200 $END
 $BASIS  GBASIS=SBKJC $END
 $SCF    DAMP=.TRUE. SHIFT=.TRUE. DIIS=.TRUE. EXTRAP=.TRUE. $END
 $TDDFT  NSTATE=5 TAMMD=.TRUE. MULT=2 $END
 $DATA
NEB image 10/15 for cu3pd basin 0->1 (alpha=0.625)
C1
 Cu   29.0     0.38228247     0.16277987     0.79702055
 Cu   29.0    -0.07244262     1.02075667    -1.44562362
 Cu   29.0    -0.37794528    -0.99984667    -0.62248200
 Pd   46.0     2.56497025    -0.24943685    -0.27220275
 $END
