 $CONTRL SCFTYP=ROHF RUNTYP=ENERGY TDDFT=SPNFLP
         DFTTYP=BHHLYP ISPHER=1 PP=SBKJC MULT=4 MAXIT=200 ICHARG=0 $END
 $SYSTEM MWORDS=400 MEMDDI=200 $END
 $BASIS  GBASIS=SBKJC $END
 $SCF    DAMP=.TRUE. SHIFT=.TRUE. DIIS=.TRUE. EXTRAP=.TRUE. $END
 $TDDFT  NSTATE=5 TAMMD=.TRUE. MULT=2 $END
 $DATA
NEB image 12/15 for cu3pd basin 0->1 (alpha=0.750)
C1
 Cu   29.0     0.37031563     0.12810808     0.79617439
 Cu   29.0     0.06696651     1.02226236    -1.43588944
 Cu   29.0    -0.45267220    -1.05302961    -0.57953840
 Pd   46.0     2.51225488    -0.16308782    -0.32403436
 $END
