 $CONTRL SCFTYP=ROHF RUNTYP=ENERGY TDDFT=SPNFLP
         DFTTYP=BHHLYP ISPHER=1 PP=SBKJC MULT=4 MAXIT=200 ICHARG=0 $END
 $SYSTEM MWORDS=400 MEMDDI=200 $END
 $BASIS  GBASIS=SBKJC $END
 $SCF    DAMP=.TRUE. SHIFT=.TRUE. DIIS=.TRUE. EXTRAP=.TRUE. $END
 $TDDFT  NSTATE=5 TAMMD=.TRUE. MULT=2 $END
 $DATA
NEB image 6/15 for cu3pd basin 0->1 (alpha=0.375)
C1
 Cu   29.0     0.40621615     0.23212344     0.79871287
 Cu   29.0    -0.35126088     1.01774530    -1.46509199
 Cu   29.0    -0.22849144    -0.89348080    -0.70836919
 Pd   46.0     2.67040100    -0.42213493    -0.16853952
 $END
