 $CONTRL SCFTYP=ROHF RUNTYP=ENERGY TDDFT=SPNFLP
         DFTTYP=BHHLYP ISPHER=1 PP=SBKJC MULT=4 MAXIT=200 ICHARG=0 $END
 $SYSTEM MWORDS=400 MEMDDI=200 $END
 $BASIS  GBASIS=SBKJC $END
 $SCF    DAMP=.TRUE. SHIFT=.TRUE. DIIS=.TRUE. EXTRAP=.TRUE. $END
 $TDDFT  NSTATE=5 TAMMD=.TRUE. MULT=2 $END
 $DATA
NEB image 7/15 for cu3pd basin 0->1 (alpha=0.438)
C1
 Cu   29.0     0.40023273     0.21478754     0.79828979
 Cu   29.0    -0.28155632     1.01849814    -1.46022490
 Cu   29.0    -0.26585490    -0.92007227    -0.68689739
 Pd   46.0     2.64404331    -0.37896041    -0.19445533
 $END
