 $CONTRL SCFTYP=ROHF RUNTYP=ENERGY TDDFT=SPNFLP
         DFTTYP=BHHLYP ISPHER=1 PP=SBKJC MULT=4 MAXIT=200 ICHARG=0 $END
 $SYSTEM MWORDS=400 MEMDDI=200 $END
 $BASIS  GBASIS=SBKJC $END
 $SCF    DAMP=.TRUE. SHIFT=.TRUE. DIIS=.TRUE. EXTRAP=.TRUE. $END
 $TDDFT  NSTATE=5 TAMMD=.TRUE. MULT=2 $END
 $DATA
NEB image 15/15 for cu3pd basin 0->1 (alpha=0.938)
C1
 Cu   29.0     0.35236538     0.07610041     0.79490514
 Cu   29.0     0.27608021     1.02452089    -1.42128817
 Cu   29.0    -0.56476259    -1.13280402    -0.51512301
 Pd   46.0     2.43318182    -0.03356426    -0.40178178
 $END
