 $CONTRL SCFTYP=ROHF RUNTYP=ENERGY TDDFT=SPNFLP
         DFTTYP=BHHLYP ISPHER=1 PP=SBKJC MULT=4 MAXIT=200 ICHARG=0 $END
 $SYSTEM MWORDS=400 MEMDDI=200 $END
 $BASIS  GBASIS=SBKJC $END
 $SCF    DAMP=.TRUE. SHIFT=.TRUE. DIIS=.TRUE. EXTRAP=.TRUE. $END
 $TDDFT  NSTATE=5 TAMMD=.TRUE. MULT=2 $END
 $DATA
NEB image 1/15 for cu3pd basin 0->1 (alpha=0.062)
C1
 Cu   29.0     0.43613324     0.31880290     0.80082828
 Cu   29.0    -0.69978371     1.01398108    -1.48942744
 Cu   29.0    -0.04167414    -0.76052345    -0.81572817
 Pd   46.0     2.80218943    -0.63800752    -0.03896049
 $END
