 $CONTRL SCFTYP=ROHF RUNTYP=ENERGY TDDFT=SPNFLP
         DFTTYP=BHHLYP ISPHER=1 PP=SBKJC MULT=4 MAXIT=200 ICHARG=0 $END
 $SYSTEM MWORDS=400 MEMDDI=200 $END
 $BASIS  GBASIS=SBKJC $END
 $SCF    DAMP=.TRUE. SHIFT=.TRUE. DIIS=.TRUE. EXTRAP=.TRUE. $END
 $TDDFT  NSTATE=5 TAMMD=.TRUE. MULT=2 $END
 $DATA
NEB image 3/15 for cu3pd basin 0->1 (alpha=0.188)
C1
 Cu   29.0     0.42416640     0.28413111     0.79998212
 Cu   29.0    -0.56037458     1.01548677    -1.47969326
 Cu   29.0    -0.11640106    -0.81370639    -0.77278458
 Pd   46.0     2.74947406    -0.55165848    -0.09079210
 $END
