 $CONTRL SCFTYP=ROHF RUNTYP=ENERGY TDDFT=SPNFLP
         DFTTYP=BHHLYP ISPHER=1 PP=SBKJC MULT=4 MAXIT=200 ICHARG=0 $END
 $SYSTEM MWORDS=400 MEMDDI=200 $END
 $BASIS  GBASIS=SBKJC $END
 $SCF    DAMP=.TRUE. SHIFT=.TRUE. DIIS=.TRUE. EXTRAP=.TRUE. $END
 $TDDFT  NSTATE=5 TAMMD=.TRUE. MULT=2 $END
 $DATA
NEB image 14/15 for cu3pd basin 0->1 (alpha=0.875)
C1
 Cu   29.0     0.35834880     0.09343630     0.79532822
 Cu   29.0     0.20637565     1.02376804    -1.42615526
 Cu   29.0    -0.52739912    -1.10621255    -0.53659481
 Pd   46.0     2.45953950    -0.07673878    -0.37586597
 $END
