 $CONTRL SCFTYP=ROHF RUNTYP=ENERGY TDDFT=SPNFLP
         DFTTYP=BHHLYP ISPHER=1 PP=SBKJC MULT=4 MAXIT=200 ICHARG=0 $END
 $SYSTEM MWORDS=400 MEMDDI=200 $END
 $BASIS  GBASIS=SBKJC $END
 $SCF    DAMP=.TRUE. SHIFT=.TRUE. DIIS=.TRUE. EXTRAP=.TRUE. $END
 $TDDFT  NSTATE=5 TAMMD=.TRUE. MULT=2 $END
 $DATA
NEB image 13/15 for cu3pd basin 0->1 (alpha=0.812)
C1
 Cu   29.0     0.36433221     0.11077219     0.79575131
 Cu   29.0     0.13667108     1.02301520    -1.43102235
 Cu   29.0    -0.49003566    -1.07962108    -0.55806661
 Pd   46.0     2.48589719    -0.11991330    -0.34995017
 $END
