 $CONTRL SCFTYP=ROHF RUNTYP=ENERGY TDDFT=SPNFLP
         DFTTYP=BHHLYP ISPHER=1 PP=SBKJC MULT=4 MAXIT=200 ICHARG=0 $END
 $SYSTEM MWORDS=400 MEMDDI=200 $END
 $BASIS  GBASIS=SBKJC $END
 $SCF    DAMP=.TRUE. SHIFT=.TRUE. DIIS=.TRUE. EXTRAP=.TRUE. $END
 $TDDFT  NSTATE=5 TAMMD=.TRUE. MULT=2 $END
 $DATA
NEB image 5/15 for cu3pd basin 0->1 (alpha=0.312)
C1
 Cu   29.0     0.41219957     0.24945933     0.79913595
 Cu   29.0    -0.42096545     1.01699246    -1.46995908
 Cu   29.0    -0.19112798    -0.86688933    -0.72984098
 Pd   46.0     2.69675869    -0.46530945    -0.14262371
 $END
