 $CONTRL SCFTYP=ROHF RUNTYP=ENERGY TDDFT=SPNFLP
         DFTTYP=BHHLYP ISPHER=1 PP=SBKJC MULT=4 MAXIT=200 ICHARG=0 $END
 $SYSTEM MWORDS=400 MEMDDI=200 $END
 $BASIS  GBASIS=SBKJC $END
 $SCF    DAMP=.TRUE. SHIFT=.TRUE. DIIS=.TRUE. EXTRAP=.TRUE. $END
 $TDDFT  NSTATE=5 TAMMD=.TRUE. MULT=2 $END
 $DATA
NEB image 2/15 for cu3pd basin 0->1 (alpha=0.125)
C1
 Cu   29.0     0.43014982     0.30146701     0.80040520
 Cu   29.0    -0.63007915     1.01473393    -1.48456035
 Cu   29.0    -0.07903760    -0.78711492    -0.79425638
 Pd   46.0     2.77583175    -0.59483300    -0.06487629
 $END
