 $CONTRL SCFTYP=ROHF RUNTYP=ENERGY TDDFT=SPNFLP
         DFTTYP=BHHLYP ISPHER=1 PP=SBKJC MULT=4 MAXIT=200 ICHARG=0 $END
 $SYSTEM MWORDS=400 MEMDDI=200 $END
 $BASIS  GBASIS=SBKJC $END
 $SCF    DAMP=.TRUE. SHIFT=.TRUE. DIIS=.TRUE. EXTRAP=.TRUE. $END
 $TDDFT  NSTATE=5 TAMMD=.TRUE. MULT=2 $END
 $DATA
NEB image 11/15 for cu3pd basin 0->1 (alpha=0.688)
C1
 Cu   29.0     0.37629905     0.14544398     0.79659747
 Cu   29.0    -0.00273805     1.02150951    -1.44075653
 Cu   29.0    -0.41530874    -1.02643814    -0.60101020
 Pd   46.0     2.53861256    -0.20626234    -0.29811855
 $END
