 $CONTRL SCFTYP=ROHF RUNTYP=CONICAL TDDFT=SPNFLP
         DFTTYP=BHHLYP ISPHER=1 PP=SBKJC MULT=4 MAXIT=200 ICHARG=0 $END
 $SYSTEM MWORDS=200 MEMDDI=100 $END
 $BASIS  GBASIS=SBKJC $END
 $SCF    DAMP=.TRUE. SHIFT=.TRUE. DIIS=.TRUE. EXTRAP=.TRUE. $END
 $STATPT NSTEP=50 OPTTOL=1.0E-5 OPTTYP=BPUPD ISTATE=1 JSTATE=2 $END
 $TDDFT  NSTATE=5 TAMMD=.TRUE. MULT=2 $END
 $DATA
CU3 CONICAL refinement v16
C1
 Cu    29.0     -0.15697952     -0.10913887      0.12896050
 Cu    29.0      2.26259621     -0.50371820      0.10605017
 Cu    29.0      1.38866059      1.77657338     -0.10837393
 $END
