 $CONTRL SCFTYP=UHF RUNTYP=CONICAL TDDFT=SPNFLP
         DFTTYP=BHHLYP ISPHER=1 PP=SBKJC MULT=3 MAXIT=300 ICHARG=0 $END
 $SYSTEM MWORDS=400 MEMDDI=200 $END
 $BASIS  GBASIS=SBKJC $END
 $SCF    DAMP=.TRUE. SHIFT=.TRUE. SOSCF=.TRUE. EXTRAP=.TRUE. $END
 $STATPT NSTEP=50 OPTTOL=1.0E-5 OPTTYP=BPUPD ISTATE=1 JSTATE=2 $END
 $TDDFT  NSTATE=5 TAMMD=.TRUE. MULT=1 $END
 $DATA
CeO CONICAL refinement v16 (UHF SOSCF)
C1
 Ce    58.0     -0.30000000      0.17344442      0.13288876
 O      8.0      1.31467332     -0.21926149     -1.00000000
 $END
