 $CONTRL SCFTYP=ROHF RUNTYP=CONICAL TDDFT=SPNFLP
         DFTTYP=BHHLYP ISPHER=1 PP=SBKJC MULT=4 MAXIT=200 ICHARG=0 $END
 $SYSTEM MWORDS=400 MEMDDI=200 $END
 $BASIS  GBASIS=SBKJC $END
 $SCF    DAMP=.TRUE. SHIFT=.TRUE. DIIS=.TRUE. EXTRAP=.TRUE. $END
 $STATPT NSTEP=50 OPTTOL=1.0E-5 OPTTYP=BPUPD ISTATE=1 JSTATE=2 $END
 $TDDFT  NSTATE=5 TAMMD=.TRUE. MULT=2 $END
 $DATA
Cu3Pd CONICAL refinement v16
C1
 Cu    29.0      0.35429480      0.79328700      0.36514858
 Cu    29.0     -0.55083741     -0.65289718      0.37663156
 Cu    29.0      0.14957267      0.01344864     -0.64109575
 Pd    46.0      2.60484774     -0.39866360      0.08092460
 $END
