! BP86  def2-SVP  def2/J  D3BJ  Opt

%maxcore 3000
%pal 
nprocs 64
end
%scf
maxiter 20
end

* xyzfile  0  1  data-ORCA-initial.xyz
